
Gurobi 9.0.1 (linux64) logging started Thu Apr 30 19:35:22 2020

Gurobi Optimizer version 9.0.1 build v9.0.1rc0 (linux64)
Optimize a model with 30902 rows, 27380 columns and 601320 nonzeros
Model fingerprint: 0xc93e172a
Variable types: 0 continuous, 27380 integer (27342 binary)
Coefficient statistics:
  Matrix range     [1e+00, 2e+01]
  Objective range  [3e+00, 1e+02]
  Bounds range     [1e+00, 1e+00]
  RHS range        [1e+00, 1e+00]

User MIP start produced solution with objective 1186 (0.85s)
Loaded user MIP start with objective 1186

Presolve removed 11480 rows and 8069 columns (presolve time = 5s) ...
Presolve removed 11522 rows and 8129 columns (presolve time = 11s) ...
Presolve removed 11522 rows and 8129 columns
Presolve time: 10.66s
Presolved: 19380 rows, 19251 columns, 506300 nonzeros
Variable types: 0 continuous, 19251 integer (19215 binary)

Root simplex log...

Iteration    Objective       Primal Inf.    Dual Inf.      Time
       0    0.0000000e+00   2.600000e+02   0.000000e+00     13s
    2171    5.2500010e+02   4.273557e+03   0.000000e+00     15s
    4041    5.3125014e+02   3.602871e+04   0.000000e+00     20s
    5401    5.3413347e+02   4.197590e+03   0.000000e+00     25s
    6676    5.4180017e+02   4.855538e+03   0.000000e+00     30s
    7951    5.4300911e+02   7.440593e+03   0.000000e+00     35s
    8966    5.4426269e+02   2.272548e+04   0.000000e+00     40s
   10326    5.4595126e+02   1.055721e+04   0.000000e+00     45s
   11431    5.4800167e+02   2.692974e+04   0.000000e+00     50s
   12366    5.4934567e+02   1.422070e+04   0.000000e+00     55s
   13386    5.5069380e+02   1.261381e+05   0.000000e+00     60s
   14491    5.5525820e+02   5.608106e+03   0.000000e+00     65s
   15681    5.5807078e+02   1.038563e+04   0.000000e+00     70s
   16531    5.5866557e+02   6.721083e+03   0.000000e+00     75s
   17551    5.6174499e+02   8.842491e+03   0.000000e+00     80s
   18486    5.6284803e+02   3.020952e+03   0.000000e+00     86s
   19251    5.6428061e+02   5.694287e+03   0.000000e+00     90s
   20016    5.6492026e+02   5.481060e+04   0.000000e+00     95s
   20951    5.6522201e+02   3.506384e+04   0.000000e+00    100s
   21806    5.6665521e+02   1.651655e+03   0.000000e+00    105s
   22486    5.6720595e+02   1.759728e+04   0.000000e+00    110s
   23310    5.6767631e+02   7.908277e+03   0.000000e+00    115s
   24075    5.6833506e+02   7.786655e+03   0.000000e+00    120s
   24840    5.6898998e+02   8.552682e+04   0.000000e+00    125s
   25605    5.6985176e+02   5.675477e+03   0.000000e+00    130s
   26378    5.7139012e+02   6.429633e+03   0.000000e+00    135s
   27164    5.7175714e+02   2.197469e+03   0.000000e+00    140s
   27929    5.7215931e+02   7.605332e+02   0.000000e+00    145s
   28694    5.7254049e+02   4.252667e+03   0.000000e+00    150s
   29466    5.7281884e+02   5.081310e+02   0.000000e+00    155s
   30192    5.7316121e+02   1.109866e+03   0.000000e+00    160s
   30977    5.7366357e+02   8.205539e+03   0.000000e+00    165s
   31755    5.7430215e+02   1.002940e+03   0.000000e+00    171s
   32451    5.7475105e+02   4.307510e+02   0.000000e+00    176s
   33136    5.7494759e+02   1.281073e+03   0.000000e+00    180s
   33788    5.7517049e+02   1.593240e+03   0.000000e+00    185s
   34557    5.7540481e+02   1.178571e+03   0.000000e+00    190s
   35261    5.7564039e+02   5.009030e+02   0.000000e+00    195s
   35966    5.7589839e+02   3.373220e+03   0.000000e+00    200s
   36604    5.7640624e+02   1.125171e+03   0.000000e+00    205s
   37369    5.7657857e+02   3.567702e+03   0.000000e+00    211s
   38132    5.7673769e+02   2.201152e+03   0.000000e+00    215s
   38812    5.7695305e+02   2.274449e+03   0.000000e+00    221s
   39638    5.7706755e+02   1.902425e+03   0.000000e+00    225s
   40458    5.7718748e+02   4.337683e+03   0.000000e+00    231s
   41138    5.7733095e+02   7.818231e+02   0.000000e+00    235s
   41863    5.7743593e+02   8.099002e+02   0.000000e+00    241s
   42462    5.7753689e+02   1.124443e+03   0.000000e+00    246s
   43227    5.7778636e+02   3.833960e+01   0.000000e+00    251s
   43907    5.7796935e+02   1.416671e+02   0.000000e+00    256s
   44502    5.7808898e+02   4.735517e+02   0.000000e+00    261s
   45182    5.7818537e+02   3.537215e+00   0.000000e+00    266s
   45677    5.7823047e+02   0.000000e+00   0.000000e+00    269s

Root relaxation: objective 5.782305e+02, 45677 iterations, 257.67 seconds
Total elapsed time = 270.42s

    Nodes    |    Current Node    |     Objective Bounds      |     Work
 Expl Unexpl |  Obj  Depth IntInf | Incumbent    BestBd   Gap | It/Node Time

     0     0  578.23047    0 3728 1186.00000  578.23047  51.2%     -  279s
     0     0  619.21152    0 3646 1186.00000  619.21152  47.8%     -  531s
     0     0  619.54023    0 3603 1186.00000  619.54023  47.8%     -  567s
     0     0  619.54481    0 3612 1186.00000  619.54481  47.8%     -  571s
     0     0  629.63059    0 3743 1186.00000  629.63059  46.9%     -  757s
     0     0  631.11126    0 3714 1186.00000  631.11126  46.8%     -  827s
     0     0  631.33140    0 3716 1186.00000  631.33140  46.8%     -  844s
     0     0  631.34686    0 3717 1186.00000  631.34686  46.8%     -  851s
     0     0  631.34809    0 3715 1186.00000  631.34809  46.8%     -  854s
     0     0  639.44752    0 3829 1186.00000  639.44752  46.1%     - 1202s
     0     0  640.83963    0 3808 1186.00000  640.83963  46.0%     - 1310s
     0     0  641.03248    0 3805 1186.00000  641.03248  46.0%     - 1338s
     0     0  641.05303    0 3802 1186.00000  641.05303  45.9%     - 1348s
     0     0  641.05517    0 3812 1186.00000  641.05517  45.9%     - 1351s
     0     0  644.93400    0 3860 1186.00000  644.93400  45.6%     - 1661s
     0     0  645.83489    0 3839 1186.00000  645.83489  45.5%     - 1743s
     0     0  645.96783    0 3823 1186.00000  645.96783  45.5%     - 1769s
     0     0  645.99178    0 3842 1186.00000  645.99178  45.5%     - 1779s
     0     0  645.99742    0 3843 1186.00000  645.99742  45.5%     - 1785s
     0     0  647.50819    0 3890 1186.00000  647.50819  45.4%     - 1926s
     0     0  647.78309    0 3932 1186.00000  647.78309  45.4%     - 1979s
     0     0  647.84231    0 3940 1186.00000  647.84231  45.4%     - 1993s
     0     0  647.85637    0 3926 1186.00000  647.85637  45.4%     - 2001s
     0     0  648.38098    0 3929 1186.00000  648.38098  45.3%     - 2080s
     0     0  648.49313    0 3909 1186.00000  648.49313  45.3%     - 2114s
     0     0  648.50718    0 3919 1186.00000  648.50718  45.3%     - 2124s
     0     0  649.13263    0 3929 1186.00000  649.13263  45.3%     - 2202s
     0     0  649.25330    0 3952 1186.00000  649.25330  45.3%     - 2249s
     0     0  649.27997    0 3936 1186.00000  649.27997  45.3%     - 2264s
     0     0  649.28512    0 3943 1186.00000  649.28512  45.3%     - 2270s
     0     0  650.83495    0 3933 1186.00000  650.83495  45.1%     - 2400s
     0     0  651.05807    0 3959 1186.00000  651.05807  45.1%     - 2482s
     0     0  651.11083    0 3931 1186.00000  651.11083  45.1%     - 2499s
     0     0  651.13130    0 3948 1186.00000  651.13130  45.1%     - 2512s
     0     0  651.13768    0 3919 1186.00000  651.13768  45.1%     - 2518s
     0     0  652.14878    0 3938 1186.00000  652.14878  45.0%     - 2613s
     0     0  652.33677    0 3955 1186.00000  652.33677  45.0%     - 2699s
     0     0  652.35956    0 3968 1186.00000  652.35956  45.0%     - 2711s
     0     0  652.36719    0 3964 1186.00000  652.36719  45.0%     - 2718s
     0     0  653.42539    0 3947 1186.00000  653.42539  44.9%     - 2817s
     0     0  653.64324    0 3954 1186.00000  653.64324  44.9%     - 2953s
     0     0  653.67019    0 3952 1186.00000  653.67019  44.9%     - 2965s
     0     0  653.68035    0 3959 1186.00000  653.68035  44.9%     - 2972s
     0     0  654.19126    0 3915 1186.00000  654.19126  44.8%     - 3047s
     0     0  654.26902    0 3920 1186.00000  654.26902  44.8%     - 3193s
     0     0  654.28788    0 3931 1186.00000  654.28788  44.8%     - 3206s
     0     0  654.79388    0 3904 1186.00000  654.79388  44.8%     - 3279s
     0     0  654.90530    0 3918 1186.00000  654.90530  44.8%     - 3321s
     0     0  654.95150    0 3905 1186.00000  654.95150  44.8%     - 3340s
     0     0  654.96921    0 3904 1186.00000  654.96921  44.8%     - 3351s
     0     0  655.50481    0 3901 1186.00000  655.50481  44.7%     - 3423s
     0     0  655.59864    0 3905 1186.00000  655.59864  44.7%     - 3452s
     0     0  655.63050    0 3912 1186.00000  655.63050  44.7%     - 3466s
     0     0  655.65021    0 3938 1186.00000  655.65021  44.7%     - 3479s
     0     0  656.15098    0 3929 1186.00000  656.15098  44.7%     - 3549s
     0     0  656.25360    0 3942 1186.00000  656.25360  44.7%     - 3583s
     0     0          -    0      1186.00000  656.25360  44.7%     - 3600s

Cutting planes:
  MIR: 118
  StrongCG: 14
  Zero half: 31
  Mod-K: 11
  RLT: 2167

Explored 1 nodes (279342 simplex iterations) in 3600.16 seconds
Thread count was 1 (of 40 available processors)

Solution count 1: 1186 

Time limit reached
Best objective 1.186000000000e+03, best bound 6.570000000000e+02, gap 44.6037%

User-callback calls 12463, time in user-callback 0.03 sec
